25
    1    14    14
    2     7     7
    3    11    11
    4     3     3
    5     1     1
    6     5     5
    7    18    18
    8     9     9
    9    15    15
   10    14    14
   11    12    12
   12    18    18
   13    20    20
   14    14    14
   15    10    10
   16     4     4
   17     4     4
   18    15    15
   19     9     9
   20     3     3
   21     6     6
   22    20    20
   23     6     6
   24    12    12
   25    19    19
21
